# Solution for model GasLib-40
# Objective value = 1.0547789704529903e+01
loadshed[innode_1] 0
loadshed[innode_2] 0
loadshed[innode_3] 0
loadshed[innode_4] 0
loadshed[innode_5] 0
loadshed[innode_6] 0
loadshed[innode_7] 0
loadshed[innode_8] 0
loadshed[source_1] -2.7028741566620051e-01
loadshed[source_2] 7.4261133159403414e-02
loadshed[source_3] 2.6274632280765520e-01
loadshed[sink_1] 0
loadshed[sink_2] 0
loadshed[sink_3] 0
loadshed[sink_4] 0
loadshed[sink_5] 0
loadshed[sink_6] 0
loadshed[sink_7] 0
loadshed[sink_8] 0
loadshed[sink_9] 0
loadshed[sink_10] 0
loadshed[sink_11] 0
loadshed[sink_12] 6.4496038957635071e-01
loadshed[sink_13] 0
loadshed[sink_14] 0
loadshed[sink_15] 0
loadshed[sink_16] 0
loadshed[sink_17] 0
loadshed[sink_18] 0
loadshed[sink_19] 0
loadshed[sink_20] 0
loadshed[sink_21] 0
loadshed[sink_22] 0
loadshed[sink_23] 0
loadshed[sink_24] 0
loadshed[sink_25] 0
loadshed[sink_26] 0
loadshed[sink_27] 0
loadshed[sink_28] 0
loadshed[sink_29] 0
flow[source_1,sink_3] 2.0082009040028510e+02
flow[innode_1,sink_16] 1.6354166666666970e+01
flow[innode_6,sink_13] -2.0734719533586841e+00
flow[sink_13,sink_14] -1.8427638620025352e+01
flow[sink_14,sink_10] -3.4781805286692020e+01
flow[sink_25,sink_26] 1.7588841038531848e+02
flow[sink_26,sink_9] 1.2189623274670929e+02
flow[sink_9,sink_18] 1.0554206608004262e+02
flow[sink_26,sink_4] 3.7638010971942535e+01
flow[sink_4,sink_20] 0
flow[sink_18,sink_6] 8.9187899413375945e+01
flow[sink_25,innode_8] -1.6811175706694871e+02
flow[sink_6,sink_7] 4.0125399413374907e+01
flow[sink_6,sink_22] 3.2708333333333641e+01
flow[sink_7,sink_24] 38.5147102954701
flow[sink_22,sink_1] 1.6354166666666970e+01
flow[sink_24,sink_21] 2.2160543628803431e+01
flow[sink_21,sink_12] 5.8063769621367642e+00
flow[sink_7,sink_5] -1.4743477548761319e+01
flow[sink_5,sink_17] -3.1097644215427977e+01
flow[sink_17,sink_4] -2.1283844305275863e+01
flow[sink_17,sink_8] -2.6167966576818646e+01
flow[sink_3,sink_23] 16.3541666666697
flow[sink_8,sink_20] -4.2522133243485314e+01
flow[sink_25,sink_20] 5.8876299910152085e+01
flow[sink_25,sink_15] -80.9336479418301
flow[sink_15,sink_29] -9.7287814608496774e+01
flow[sink_29,sink_28] 1.6354166666667879e+01
flow[sink_29,sink_2] 1.6354166666684250e+01
flow[sink_2,sink_15] 0
flow[sink_29,innode_7] -1.4635031460851513e+02
flow[innode_4,sink_19] 0
flow[sink_19,innode_3] 4.0915667073285640e+01
flow[innode_4,innode_5] 1.1655263862002589e+02
flow[sink_27,innode_5] -1.1655263862002589e+02
flow[sink_27,sink_19] 1.0019847195335922e+02
flow[sink_10,sink_11] 3.2708333333333641e+01
flow[sink_10,innode_2] -4.2928638213406686e+01
flow[sink_10,innode_3] -4.0915667073285640e+01
flow[innode_6,sink_25] 2.0734719533586841e+00
flow[sink_11,innode_1] 1.6354166666666970e+01
flow[sink_19,innode_2] 4.2928638213406686e+01
flow[source_3,innode_4] 1.1655263862002589e+02
flow[source_2,innode_7] 1.4635031460851513e+02
flow[sink_3,innode_8] 1.6811175706694871e+02
pressure[innode_1] 7.5393952085293890e+01
pressure[innode_2] 7.7814609223558620e+01
pressure[innode_3] 7.7724006112021513e+01
pressure[innode_4] 81.01325
pressure[innode_5] 8.0933078949317476e+01
pressure[innode_6] 7.3856114308201867e+01
pressure[innode_7] 81.01325
pressure[innode_8] 8.0341985153847034e+01
pressure[source_1] 81.01325
pressure[source_2] 81.01325
pressure[source_3] 81.01325
pressure[sink_1] 4.5871106130660927e+01
pressure[sink_2] 7.6684682912457347e+01
pressure[sink_3] 8.0341985153847034e+01
pressure[sink_4] 56.6830027318053
pressure[sink_5] 5.3553054669944046e+01
pressure[sink_6] 47.9721837410483
pressure[sink_7] 4.7421357651578944e+01
pressure[sink_8] 5.6856989745413678e+01
pressure[sink_9] 5.4172592722892077e+01
pressure[sink_10] 7.5545653392897435e+01
pressure[sink_11] 7.5393952085293890e+01
pressure[sink_12] 1.0132500000000002e+00
pressure[sink_13] 7.3867545012571370e+01
pressure[sink_14] 7.3900522841569639e+01
pressure[sink_15] 7.4248721364233447e+01
pressure[sink_16] 7.4372302250476210e+01
pressure[sink_17] 5.5869604383764859e+01
pressure[sink_18] 5.0353766202659330e+01
pressure[sink_19] 7.7814609223558620e+01
pressure[sink_20] 5.9820184432199532e+01
pressure[sink_21] 3.0794767073772373e+00
pressure[sink_22] 4.6934875273015933e+01
pressure[sink_23] 8.0177267142187247e+01
pressure[sink_24] 3.3248841384656402e+00
pressure[sink_25] 7.3856114308201867e+01
pressure[sink_26] 6.1468396858299094e+01
pressure[sink_27] 79.9659074148904
pressure[sink_28] 7.6803670137303826e+01
pressure[sink_29] 77.098952410921
interdiction[source_1,sink_3] 0
interdiction[innode_1,sink_16] 0
interdiction[innode_6,sink_13] 0
interdiction[sink_13,sink_14] 0
interdiction[sink_14,sink_10] 0
interdiction[sink_25,sink_26] 0
interdiction[sink_26,sink_9] 0
interdiction[sink_9,sink_18] 0
interdiction[sink_26,sink_4] 0
interdiction[sink_4,sink_20] 1
interdiction[sink_18,sink_6] 0
interdiction[sink_25,innode_8] 0
interdiction[sink_6,sink_7] 0
interdiction[sink_6,sink_22] 0
interdiction[sink_7,sink_24] 0
interdiction[sink_22,sink_1] 0
interdiction[sink_24,sink_21] 0
interdiction[sink_21,sink_12] 0
interdiction[sink_7,sink_5] 0
interdiction[sink_5,sink_17] 0
interdiction[sink_17,sink_4] 0
interdiction[sink_17,sink_8] 0
interdiction[sink_3,sink_23] 0
interdiction[sink_8,sink_20] 0
interdiction[sink_25,sink_20] 0
interdiction[sink_25,sink_15] 0
interdiction[sink_15,sink_29] 0
interdiction[sink_29,sink_28] 0
interdiction[sink_29,sink_2] 0
interdiction[sink_2,sink_15] 1
interdiction[sink_29,innode_7] 0
interdiction[innode_4,sink_19] 1
interdiction[sink_19,innode_3] 0
interdiction[innode_4,innode_5] 0
interdiction[sink_27,innode_5] 0
interdiction[sink_27,sink_19] 0
interdiction[sink_10,sink_11] 0
interdiction[sink_10,innode_2] 0
interdiction[sink_10,innode_3] 0
interdiction[innode_6,sink_25] 0
interdiction[sink_11,innode_1] 0
interdiction[sink_19,innode_2] 0
interdiction[source_3,innode_4] 0
interdiction[source_2,innode_7] 0
interdiction[sink_3,innode_8] 0
WCcheckFlow[source_1,sink_3] 39
WCcheckFlow[innode_1,sink_16] 1
WCcheckFlow[innode_6,sink_13] 13
WCcheckFlow[sink_13,sink_14] 12
WCcheckFlow[sink_14,sink_10] 11
WCcheckFlow[sink_25,sink_26] 15
WCcheckFlow[sink_26,sink_9] 13
WCcheckFlow[sink_9,sink_18] 12
WCcheckFlow[sink_26,sink_4] 1
WCcheckFlow[sink_4,sink_20] 0
WCcheckFlow[sink_18,sink_6] 11
WCcheckFlow[sink_25,innode_8] -36
WCcheckFlow[sink_6,sink_7] 8
WCcheckFlow[sink_6,sink_22] 2
WCcheckFlow[sink_7,sink_24] 3
WCcheckFlow[sink_22,sink_1] 1
WCcheckFlow[sink_24,sink_21] 2
WCcheckFlow[sink_21,sink_12] 1
WCcheckFlow[sink_7,sink_5] 4
WCcheckFlow[sink_5,sink_17] 3
WCcheckFlow[sink_17,sink_4] 0
WCcheckFlow[sink_17,sink_8] 2
WCcheckFlow[sink_3,sink_23] 1
WCcheckFlow[sink_8,sink_20] 1
WCcheckFlow[sink_25,sink_20] 0
WCcheckFlow[sink_25,sink_15] 6
WCcheckFlow[sink_15,sink_29] 5
WCcheckFlow[sink_29,sink_28] 1
WCcheckFlow[sink_29,sink_2] 1
WCcheckFlow[sink_2,sink_15] 0
WCcheckFlow[sink_29,innode_7] 2
WCcheckFlow[innode_4,sink_19] 0
WCcheckFlow[sink_19,innode_3] -5
WCcheckFlow[innode_4,innode_5] -2
WCcheckFlow[sink_27,innode_5] 3
WCcheckFlow[sink_27,sink_19] -4
WCcheckFlow[sink_10,sink_11] 3
WCcheckFlow[sink_10,innode_2] 1
WCcheckFlow[sink_10,innode_3] 6
WCcheckFlow[innode_6,sink_25] -14
WCcheckFlow[sink_11,innode_1] 2
WCcheckFlow[sink_19,innode_2] 0
WCcheckFlow[source_3,innode_4] -1
WCcheckFlow[source_2,innode_7] -1
WCcheckFlow[sink_3,innode_8] 37
